SYSTEM = HSE-SCF
PREC = Accurate
ISMEAR = 0
SIGMA = 0.05
ENCUT = 450.0
ISIF = 2
NSW = 0
IBRION = -1
EDIFFG = -0.02
EDIFF = 1E-6
NELMIN = 4

LCHARG = .TRUE.
LWAVE = .TRUE.
NELM = 120
NPAR = 4
ISYM = 0
LORBIT = 11
NBANDS = 20

ALGO = Damped
LHFCALC = .TRUE.
HFSCREEN = 0.2
TIME = 0.4
LMAXFOCK = 4
PRECFOCK = Normal

