SYSTEM = HSE-SCF
ICHARG = 0
PREC = Accurate
ISMEAR = 0
SIGMA = 0.05
LREAL = .FALSE.
ENCUT = 450.0
#IDIPOL = 3
ISIF = 2
NSW = 0
IBRION = -1
EDIFFG = -0.02
EDIFF = 1E-6
NELMIN = 4
ALGO = Damped
LHFCALC = .TRUE.
HFSCREEN = 0.2
TIME = 0.4
LMAXFOCK = 4
PRECFOCK = Normal
LCHARG = .TRUE.
LWAVE = .TRUE.
NELM = 120
NPAR = 4
ISYM = 0
LVTOT = .TRUE.
